$ TDB file converted from SGTE .dat file for Li-Mg-Sn system
$ References: [2006PJS], [2008Kan], [2010Jian], [2011Jian], [2012Jian]
$ Generated on 2025-06-10

ELEMENT LI   BCC_A2    6.941   5.34E+00  0.0 !
ELEMENT MG   HCP_A3    24.305  1.74E+00  0.0 !
ELEMENT SN   BCT_A5    118.71  7.28E+00  0.0 !
ELEMENT VA   VACUUM    0.0     0.0       0.0 !
SPECIES LI   LI1/ !
SPECIES MG   MG1/ !
SPECIES SN   SN1/ !
SPECIES VA   VA1/ !

$ Define Gibbs energy functions
FUNCTION GHSERLI
  298.15  -2529.59397 + 52.0165966*T - 9.307001*T*LN(T) + 0.00847679895*T**2 - 4.749001E-06*T**3 + 38239.4737/T; 500
  500     -133742.622 + 2521.00379*T - 407.000156*T*LN(T) + 0.53975369*T**2 - 1.36488069E-04*T**3 + 8098918.25/T; 3000
  3000    -2166.10855 + 42.8485284*T - 7.46376099*T*LN(T) + 0.000629353924*T**2 - 1.04699375E-07*T**3 - 24471.0703/T; 6000
Y

FUNCTION GHSERMG
  298.15  -19998.425 + 343.3928*T - 62.5836*T*LN(T) + 0.0011610899*T**2 - 3.3309489E-06*T**3 + 188695.03/T; 923
  923     -33771.955 + 489.2835*T - 82*T*LN(T) + 2.4813384E+27*T**(-9); 3000
Y

FUNCTION GHSERSN
  298.15  -19021.312 + 293.37961*T - 61.802103*T*LN(T) + 0.0012233509*T**2 - 7.6308963E-06*T**3 + 44072.658/T; 505.08
  505.08  -13994.109 + 156.37641*T - 38.147706*T*LN(T) - 0.04510086*T**2 + 7.4597682E-06*T**3 - 148087.95/T; 800
  800     +6034.2352 + 9.5359584*T - 19.7396*T*LN(T) - 0.04018745*T**2 + 6.2694336E-06*T**3 - 2584235.2/T; 3000
  3000    -19734.606 + 332.17365*T - 68*T*LN(T) - 2.9414436E+25*T**(-9); 6000
Y

FUNCTION GFCCSN
  298.15  -910.257468 + 28.0988172*T - 6.18021033*T*LN(T) + 0.000122335086*T**2 - 7.63089627E-07*T**3 + 4407.26577/T; 1000
  1000    -407.53703 + 14.3984978*T - 3.81477055*T*LN(T) - 0.00451008604*T**2 + 7.45976816E-07*T**3 - 14808.7954/T; 3000
  3000    -1992.87498 + 43.7999734*T - 8.38862333*T*LN(T); 6000
Y

FUNCTION GBCCMG
  298.15  -1258.92447 + 33.8373678*T - 6.25835999*T*LN(T) + 0.000116108987*T**2 - 3.33094885E-07*T**3 + 18869.5029/T; 3000
  3000    -2636.27747 + 48.426438*T - 8.2*T*LN(T) + 2.48133843E+27*T**(-9); 6000
Y

FUNCTION BCC_087
  298.15  +7409.1778 - 5.0191205*T; 3000
Y

FUNCTION BCC_165
  298.15  +10516.252 - 14.340344*T; 3000
Y

FUNCTION HCP_075
  298.15  -368.06883 + 4.7801147*T; 3000
Y

FUNCTION HCP_132
  298.15  +9321.2237 - 10.516252*T; 6000
Y

FUNCTION G_A
  298.15  +1; 6000
Y

FUNCTION G_BT
  298.15  +T; 6000
Y

FUNCTION GLi2Sn
  298.15  -90000 + 0.1*T; 6000
Y

FUNCTION GMG2SN2
  298.15  +35850.86 + 0.1*T; 6000
Y

FUNCTION GLi22Sn5
  298.15  -301778.24 + 1322.68123*T - 235.655052*T*LN(T) + 0.187101274*T**2 - 0.000108293448*T**3 + 863304.971/T; 453.6
  453.6   -299264.638 + 1254.17963*T - 223.827853*T*LN(T) + 0.163939169*T**2 - 0.000100748116*T**3 + 767224.665/T; 1000
  1000    -306936.754 + 1137.37586*T - 192.27653*T*LN(T) - 0.0219775574*T**2 + 3.68908102E-06*T**3 + 1498661.57/T; 2000
  2000    -314863.443 + 1284.38323*T - 215.145793*T*LN(T) + 0.000572872849*T**2 - 4.08030593E-08*T**3 + 1572705.54/T; 3000
  3000    -314863.443 + 1284.38323*T - 215.145793*T*LN(T) + 0.000572872849*T**2 - 4.08030593E-08*T**3 + 1572705.54/T; 6000
Y

FUNCTION GMg22Sn5
  298.15  -53509.0036 + 902.178705*T - 168.584971*T*LN(T) + 0.00316607314*T**2 - 1.11435356E-05*T**3 + 437165.392/T; 505.08
  505.08  -50995.4014 + 833.677108*T - 156.757773*T*LN(T) - 0.0199960325*T**2 - 3.59820339E-06*T**3 + 341085.086/T; 923
  923     -57526.2117 + 958.812333*T - 176.701606*T*LN(T) + 0.00292133126*T**2 - 7.35374076E-06*T**3 + 678513.384/T; 3000
  3000    -87827.9777 + 1279.77188*T - 219.417686*T*LN(T) + 0.000366933556*T**2 - 2.56532823E-08*T**3 + 263384.321/T; 6000
Y

FUNCTION GLi2MgSn
  298.15  -34818.35 + 1.8*T; 9600
Y

FUNCTION GLi2MgLi
  298.15  0; 9600
Y

FUNCTION GLi2LiSn
  298.15  0; 9600
Y

FUNCTION GLi2LiLi
  298.15  0; 9600
Y

FUNCTION GNEWLI
  298.15  -2529.59297 + 52.0166066*T - 9.307*T*LN(T) + 0.00847679995*T**2 - 4.749E-06*T**3 + 38239.4837/T; 3000
  3000    -2878.32549 + 46.7073439*T - 7.87284895*T*LN(T) + 0.000026039675*T**2 - 1.85468451E-09*T**3 + 71486.6157/T; 6000
Y

FUNCTION GNEWSN
  298.15  -1902.13127 + 29.3416471*T - 6.18021033*T*LN(T) + 0.000122335086*T**2 - 7.63089627E-07*T**3 + 4407.26577/T; 1000
  1000    -1399.41084 + 15.6413277*T - 3.81477055*T*LN(T) - 0.00451008604*T**2 + 7.45976816E-07*T**3 - 14808.7954/T; 2000
  2000    -2984.74879 + 45.0428032*T - 8.38862333*T*LN(T); 6000
Y

FUNCTION GMg2Sn
  298.15  -24519.5576 + 87.8350049*T - 16.331501*T*LN(T) - 0.00427786807*T**2 + 7.97870459E-08*T**3 + 22930.2103/T; 6000
Y

$ Define phases
PHASE LIQUID % 1 1
CONSTITUENT LIQUID : LI,MG,SN :
PARAMETER G(LIQUID,LI;0) 298.15
  +645.36471 + 83.450343*T - 9.307*T*LN(T) - 0.0076478967*T**2 + 0.28494*T**3; 453.6
  +649.13833 + 83.582808*T - 14.725249*T*LN(T) + 0.026767113*T**2 - 0.91714633*T**3; 3000
  +563.03992 + 81.017434*T + 7.46376*T*LN(T) + 0.0048942161*T**2 + 0.0062819025*T**3; 6000
Y
PARAMETER G(LIQUID,MG;0) 298.15
  +1960.4077 + 99.207297*T - 6.25836*T*LN(T) - 0.0037739006*T**2 + 0.019986123*T**3 + 8.04826E-18*T**6; 923
  +1144.6814 + 82.367413*T - 8.2*T*LN(T); 3000
Y
PARAMETER G(LIQUID,SN;0) 298.15
  +1696.8751 + 155.9637*T - 6.1802103*T*LN(T) - 0.00088145315*T**2 + 0.045785378*T**3 - 1.4759326E-16*T**6; 505.08
  +1697.2381 + 155.97633*T - 3.8147706*T*LN(T) + 0.0029617591*T**2 - 0.044758609*T**3 - 1.4759326E-16*T**6; 800
  +1448.7027 + 148.87272*T - 1.97396*T*LN(T) + 0.051684704*T**2 - 0.037616601*T**3; 3000
  +1720.2084 + 156.24304*T - 6.8*T*LN(T); 6000
Y
PARAMETER L(LIQUID,LI,MG;0) 298.15 -1300 + 0.94*T; 6000
Y
PARAMETER L(LIQUID,LI,MG;1) 298.15 -2200 + 0.15*T; 6000
Y
PARAMETER L(LIQUID,LI,MG;2) 298.15 +600 - 0.54*T; 6000
Y
PARAMETER L(LIQUID,LI,SN;0) 298.15 -6900 + 0.5*T; 6000
Y
PARAMETER L(LIQUID,LI,SN;1) 298.15 +7850 - 0.46*T; 6000
Y
PARAMETER L(LIQUID,LI,SN;2) 298.15 -1000 - 0.2*T; 6000
Y
PARAMETER L(LIQUID,MG,SN;0) 298.15 -36480 - 0.21*T; 6000
Y
PARAMETER L(LIQUID,MG,SN;1) 298.15 +8000 + 0.1*T; 6000
Y

PHASE BCC_A2 % 2 1 3
CONSTITUENT BCC_A2 : LI,MG,SN : VA :
PARAMETER G(BCC_A2,LI:VA;0) 298.15 +GHSERLI; 6000
Y
PARAMETER G(BCC_A2,MG:VA;0) 298.15 +BCC_087 + GHSERMG; 6000
Y
PARAMETER G(BCC_A2,SN:VA;0) 298.15 +BCC_165 + GNEWSN; 6000
Y
PARAMETER L(BCC_A2,LI,MG:VA;0) 298.15 -41000 + 16*T; 6000
Y
PARAMETER L(BCC_A2,LI,MG:VA;1) 298.15 -8000 + 3*T; 6000
Y
PARAMETER L(BCC_A2,LI,MG:VA;2) 298.15 +8000 - 0.1*T; 6000
Y

PHASE BCT_A5 % 1 1
CONSTITUENT BCT_A5 : LI,MG,SN :
PARAMETER G(BCT_A5,SN;0) 298.15 +GNEWSN; 6000
Y
PARAMETER G(BCT_A5,MG;0) 298.15 +GHSERMG + 3585.4*G_A; 6000
Y
PARAMETER G(BCT_A5,LI;0) 298.15 +GNEWLI + 3585.4*G_A; 6000
Y

PHASE HCP_A3 % 2 1 0.5
CONSTITUENT HCP_A3 : LI,MG,SN : VA :
PARAMETER G(HCP_A3,LI:VA;0) 298.15 +HCP_075 + GNEWLI; 6000
Y
PARAMETER G(HCP_A3,MG:VA;0) 298.15 +GHSERMG; 6000
Y
PARAMETER G(HCP_A3,SN:VA;0) 298.15 +HCP_132 + GNEWSN; 6000
Y
PARAMETER L(HCP_A3,LI,MG:VA;0) 298.15 -16000 + 1.2*T; 6000
Y
PARAMETER L(HCP_A3,LI,MG:VA;1) 298.15 -9400; 6000
Y
PARAMETER L(HCP_A3,LI,MG:VA;2) 298.15 +9800; 6000
Y
PARAMETER L(HCP_A3,MG,SN:VA;0) 298.15 0; 6000
Y
PARAMETER L(HCP_A3,MG,SN:VA;1) 298.15 +115000; 6000
Y

PHASE LI7SN2 % 2 7 2
CONSTITUENT LI7SN2 : LI,SN : LI,SN :
PARAMETER G(LI7SN2,LI:LI;0) 298.15
  -2.14803528E-07 + 62.6386236*T - 8.3763*T*LN(T) - 0.00688310707*T**2 + 0.256446*T**3; 453.6
  -483.457052 + 61.2987654*T - 7.08556405*T*LN(T) - 0.0128675908*T**2 + 0.100152964*T**3; 3000
Y
PARAMETER G(LI7SN2,LI:SN;0) 298.15
  -89940 + 2.1*T + 7*GNEWLI + 2*GNEWSN; 6000
Y
PARAMETER G(LI7SN2,SN:LI;0) 298.15
  -5082.89898 + 99.5281436*T - 6.18754723*T*LN(T) - 0.00214659656*T**2 + 0.0890377643*T**3; 453.6
  -2541.47336 + 99.5369815*T - 4.53173939*T*LN(T) + 0.000543652008*T**2 + 0.0256569737*T**3; 1000
  -109.976326 + 99.2392352*T - 4.24490918*T*LN(T) - 0.00078623327*T**2 - 0.0313087701*T**3; 2000
  -3495.74154 + 91.5987995*T - 7.44660612*T*LN(T) - 0.00285946463*T**2 + 0.0222562141*T**3; 3000
Y
PARAMETER G(LI7SN2,SN:SN;0) 298.15
  -6535.09446 + 110.068006*T - 5.56218929*T*LN(T) - 0.000793307839*T**2 + 0.0412068399*T**3; 1000
  -3267.54723 + 110.079369*T - 3.4332935*T*LN(T) + 0.00266558317*T**2 - 0.0402827481*T**3; 2000
  -4356.39425 + 100.255952*T - 7.54976099*T*LN(T); 3000
Y
PARAMETER L(LI7SN2,LI,SN:LI;0) 298.15 0; 6000
Y
PARAMETER L(LI7SN2,LI,SN:SN;0) 298.15 0; 6000
Y
PARAMETER L(LI7SN2,LI:LI,SN;0) 298.15 0; 6000
Y
PARAMETER L(LI7SN2,SN:LI,SN;0) 298.15 +62000 + 18*T; 6000
Y

PHASE MG2X % 2 2 1
CONSTITUENT MG2X : LI,MG : SN :
PARAMETER G(MG2X,LI:SN;0) 298.15 +2*GNEWLI + GNEWSN + GLi2Sn; 6000
Y
PARAMETER G(MG2X,MG:SN;0) 298.15 +GMg2Sn + G_A; 6000
Y
PARAMETER L(MG2X,LI,MG:SN;0) 298.15 -29000 + 0.1*T; 6000
Y

PHASE ML22SN5 % 2 22 5
CONSTITUENT ML22SN5 : LI,MG : SN :
PARAMETER G(ML22SN5,LI:SN;0) 298.15 +GLi22Sn5; 6000
Y
PARAMETER G(ML22SN5,MG:SN;0) 298.15 +GMg22Sn5; 6000
Y
PARAMETER L(ML22SN5,LI,MG:SN;0) 298.15 -80000 - 0.1*T; 6000
Y

PHASE LI2MGSN % 3 2 1 1
CONSTITUENT LI2MGSN : LI : LI,MG : LI,SN :
PARAMETER G(LI2MGSN,LI:MG:SN;0) 298.15 +2*GNEWLI + GHSERMG + GNEWSN + GLi2MgSn; 6000
Y
PARAMETER G(LI2MGSN,LI:MG:LI;0) 298.15 +2*GNEWLI + 2*GHSERMG + GLi2MgLi; 6000
Y
PARAMETER G(LI2MGSN,LI:LI:SN;0) 298.15 +3*GNEWLI + GNEWSN + GLi2LiSn; 6000
Y
PARAMETER G(LI2MGSN,LI:LI:LI;0) 298.15 +4*GNEWLI + GLi2LiLi; 6000
Y
PARAMETER L(LI2MGSN,LI:LI,MG:SN;0) 298.15 -440000 + 12.1*T; 6000
Y
PARAMETER L(LI2MGSN,LI:LI,MG:SN;1) 298.15 -410000 + 11*T; 6000
Y
PARAMETER L(LI2MGSN,LI:LI,MG:LI;0) 298.15 -340000 + 15.1*T; 6000
Y
PARAMETER L(LI2MGSN,LI:LI,MG:LI;1) 298.15 -310000 + 14*T; 6000
Y

$ Define magnetic parameters (if applicable, from V P entries)
PARAMETER BMAGN(LIQUID,LI;0) 298.15 0.547; 6000
Y
PARAMETER TC(LIQUID,LI;0) 298.15 1314.41083; 6000
Y
PARAMETER BMAGN(LIQUID,MG;0) 298.15 1.7; 6000
Y
PARAMETER TC(LIQUID,MG;0) 298.15 1406.97171; 6000
Y
PARAMETER BMAGN(LIQUID,SN;0) 298.15 7.11; 6000
Y
PARAMETER TC(LIQUID,SN;0) 298.15 1670.5; 6000
Y

$ References
REFERENCE [2006PJS] "Li-Mg system assessment"
REFERENCE [2008Kan] "Mg-Sn system assessment"
REFERENCE [2010Jian] "Li-Sn and Li-Mg-Sn system assessment"
REFERENCE [2011Jian] "Li-Mg-Sn system assessment"
REFERENCE [2012Jian] "Li-Sn intermetallic assessment"

$ End of TDB file
ENDF